# Node Net
6391   1
 31   1
 51   1
3150   1
4231   1
 46   1
1440   2
8031   2
5490   2
3870   2
5401   2
 76   2
6480   3
3240   3
 10   3
5760   3
8078   3
8089   4
8046   4
4321   4
 69   4
8060   4
7111   5
8066   5
 73   5
990   5
 17   5
8049   6
5580   6
 87   6
7740   7
 61   7
 19   7
7200   8
8028   8
5491   8
2431   9
 59   9
2611   9
7921  10
8029  10
7470  10
